; benchmark generated from python API
(set-info :status unknown)
(declare-fun cell_1_4 () Int)
(declare-fun cell_2_9 () Int)
(declare-fun cell_3_1 () Int)
(declare-fun cell_4_8 () Int)
(declare-fun cell_5_3 () Int)
(declare-fun cell_1_1 () Int)
(declare-fun cell_2_1 () Int)
(declare-fun cell_4_1 () Int)
(declare-fun cell_5_1 () Int)
(declare-fun cell_6_1 () Int)
(declare-fun cell_7_1 () Int)
(declare-fun cell_8_1 () Int)
(declare-fun cell_9_1 () Int)
(declare-fun cell_1_2 () Int)
(declare-fun cell_2_2 () Int)
(declare-fun cell_3_2 () Int)
(declare-fun cell_4_2 () Int)
(declare-fun cell_5_2 () Int)
(declare-fun cell_6_2 () Int)
(declare-fun cell_7_2 () Int)
(declare-fun cell_8_2 () Int)
(declare-fun cell_9_2 () Int)
(declare-fun cell_1_3 () Int)
(declare-fun cell_2_3 () Int)
(declare-fun cell_3_3 () Int)
(declare-fun cell_4_3 () Int)
(declare-fun cell_6_3 () Int)
(declare-fun cell_7_3 () Int)
(declare-fun cell_8_3 () Int)
(declare-fun cell_9_3 () Int)
(declare-fun cell_2_4 () Int)
(declare-fun cell_3_4 () Int)
(declare-fun cell_4_4 () Int)
(declare-fun cell_5_4 () Int)
(declare-fun cell_6_4 () Int)
(declare-fun cell_7_4 () Int)
(declare-fun cell_8_4 () Int)
(declare-fun cell_9_4 () Int)
(declare-fun cell_1_5 () Int)
(declare-fun cell_2_5 () Int)
(declare-fun cell_3_5 () Int)
(declare-fun cell_4_5 () Int)
(declare-fun cell_5_5 () Int)
(declare-fun cell_6_5 () Int)
(declare-fun cell_7_5 () Int)
(declare-fun cell_8_5 () Int)
(declare-fun cell_9_5 () Int)
(declare-fun cell_1_6 () Int)
(declare-fun cell_2_6 () Int)
(declare-fun cell_3_6 () Int)
(declare-fun cell_4_6 () Int)
(declare-fun cell_5_6 () Int)
(declare-fun cell_6_6 () Int)
(declare-fun cell_7_6 () Int)
(declare-fun cell_8_6 () Int)
(declare-fun cell_9_6 () Int)
(declare-fun cell_1_7 () Int)
(declare-fun cell_2_7 () Int)
(declare-fun cell_3_7 () Int)
(declare-fun cell_4_7 () Int)
(declare-fun cell_5_7 () Int)
(declare-fun cell_6_7 () Int)
(declare-fun cell_7_7 () Int)
(declare-fun cell_8_7 () Int)
(declare-fun cell_9_7 () Int)
(declare-fun cell_1_8 () Int)
(declare-fun cell_2_8 () Int)
(declare-fun cell_3_8 () Int)
(declare-fun cell_5_8 () Int)
(declare-fun cell_6_8 () Int)
(declare-fun cell_7_8 () Int)
(declare-fun cell_8_8 () Int)
(declare-fun cell_9_8 () Int)
(declare-fun cell_1_9 () Int)
(declare-fun cell_3_9 () Int)
(declare-fun cell_4_9 () Int)
(declare-fun cell_5_9 () Int)
(declare-fun cell_6_9 () Int)
(declare-fun cell_7_9 () Int)
(declare-fun cell_8_9 () Int)
(declare-fun cell_9_9 () Int)
(assert
 (= cell_1_4 1))
(assert
 (= cell_2_9 1))
(assert
 (= cell_3_1 1))
(assert
 (= cell_4_8 1))
(assert
 (= cell_5_3 1))
(assert
 (let (($x6041 (= cell_1_1 9)))
 (let (($x442 (= cell_1_1 8)))
 (let (($x3218 (= cell_1_1 7)))
 (let (($x5048 (= cell_1_1 6)))
 (let (($x2660 (= cell_1_1 5)))
 (let (($x7394 (= cell_1_1 4)))
 (let (($x8488 (= cell_1_1 3)))
 (let (($x7309 (= cell_1_1 2)))
 (let (($x2664 (= cell_1_1 1)))
 (or $x2664 $x7309 $x8488 $x7394 $x2660 $x5048 $x3218 $x442 $x6041)))))))))))
(assert
 (let (($x8208 (= cell_2_1 9)))
 (let (($x6544 (= cell_2_1 8)))
 (let (($x2088 (= cell_2_1 7)))
 (let (($x895 (= cell_2_1 6)))
 (let (($x6589 (= cell_2_1 5)))
 (let (($x1456 (= cell_2_1 4)))
 (let (($x5203 (= cell_2_1 3)))
 (let (($x891 (= cell_2_1 2)))
 (let (($x9572 (= cell_2_1 1)))
 (or $x9572 $x891 $x5203 $x1456 $x6589 $x895 $x2088 $x6544 $x8208)))))))))))
(assert
 (let (($x6261 (= cell_3_1 1)))
 (or $x6261 (= cell_3_1 2) (= cell_3_1 3) (= cell_3_1 4) (= cell_3_1 5) (= cell_3_1 6) (= cell_3_1 7) (= cell_3_1 8) (= cell_3_1 9))))
(assert
 (let (($x9230 (= cell_4_1 9)))
 (let (($x2104 (= cell_4_1 8)))
 (let (($x1990 (= cell_4_1 7)))
 (let (($x9558 (= cell_4_1 6)))
 (let (($x8028 (= cell_4_1 5)))
 (let (($x1840 (= cell_4_1 4)))
 (let (($x5129 (= cell_4_1 3)))
 (let (($x2290 (= cell_4_1 2)))
 (let (($x5571 (= cell_4_1 1)))
 (or $x5571 $x2290 $x5129 $x1840 $x8028 $x9558 $x1990 $x2104 $x9230)))))))))))
(assert
 (let (($x2188 (= cell_5_1 9)))
 (let (($x6798 (= cell_5_1 8)))
 (let (($x9640 (= cell_5_1 7)))
 (let (($x4064 (= cell_5_1 6)))
 (let (($x3854 (= cell_5_1 5)))
 (let (($x887 (= cell_5_1 4)))
 (let (($x9933 (= cell_5_1 3)))
 (let (($x766 (= cell_5_1 2)))
 (let (($x4668 (= cell_5_1 1)))
 (or $x4668 $x766 $x9933 $x887 $x3854 $x4064 $x9640 $x6798 $x2188)))))))))))
(assert
 (let (($x1378 (= cell_6_1 1)))
 (or $x1378 (= cell_6_1 2) (= cell_6_1 3) (= cell_6_1 4) (= cell_6_1 5) (= cell_6_1 6) (= cell_6_1 7) (= cell_6_1 8) (= cell_6_1 9))))
(assert
 (let (($x5169 (= cell_7_1 1)))
 (or $x5169 (= cell_7_1 2) (= cell_7_1 3) (= cell_7_1 4) (= cell_7_1 5) (= cell_7_1 6) (= cell_7_1 7) (= cell_7_1 8) (= cell_7_1 9))))
(assert
 (let (($x681 (= cell_8_1 1)))
 (or $x681 (= cell_8_1 2) (= cell_8_1 3) (= cell_8_1 4) (= cell_8_1 5) (= cell_8_1 6) (= cell_8_1 7) (= cell_8_1 8) (= cell_8_1 9))))
(assert
 (let (($x3102 (= cell_9_1 1)))
 (or $x3102 (= cell_9_1 2) (= cell_9_1 3) (= cell_9_1 4) (= cell_9_1 5) (= cell_9_1 6) (= cell_9_1 7) (= cell_9_1 8) (= cell_9_1 9))))
(assert
 (let (($x9860 (= cell_1_2 9)))
 (let (($x7981 (= cell_1_2 8)))
 (let (($x2165 (= cell_1_2 7)))
 (let (($x2921 (= cell_1_2 6)))
 (let (($x5580 (= cell_1_2 5)))
 (let (($x7598 (= cell_1_2 4)))
 (let (($x8456 (= cell_1_2 3)))
 (let (($x760 (= cell_1_2 2)))
 (let (($x6078 (= cell_1_2 1)))
 (or $x6078 $x760 $x8456 $x7598 $x5580 $x2921 $x2165 $x7981 $x9860)))))))))))
(assert
 (let (($x9519 (= cell_2_2 9)))
 (let (($x1755 (= cell_2_2 8)))
 (let (($x2693 (= cell_2_2 7)))
 (let (($x8146 (= cell_2_2 6)))
 (let (($x6486 (= cell_2_2 5)))
 (let (($x1638 (= cell_2_2 4)))
 (let (($x9581 (= cell_2_2 3)))
 (let (($x8283 (= cell_2_2 2)))
 (let (($x6735 (= cell_2_2 1)))
 (or $x6735 $x8283 $x9581 $x1638 $x6486 $x8146 $x2693 $x1755 $x9519)))))))))))
(assert
 (let (($x4853 (= cell_3_2 1)))
 (or $x4853 (= cell_3_2 2) (= cell_3_2 3) (= cell_3_2 4) (= cell_3_2 5) (= cell_3_2 6) (= cell_3_2 7) (= cell_3_2 8) (= cell_3_2 9))))
(assert
 (let (($x1743 (= cell_4_2 9)))
 (let (($x8923 (= cell_4_2 8)))
 (let (($x2837 (= cell_4_2 7)))
 (let (($x2850 (= cell_4_2 6)))
 (let (($x342 (= cell_4_2 5)))
 (let (($x4487 (= cell_4_2 4)))
 (let (($x2260 (= cell_4_2 3)))
 (let (($x4977 (= cell_4_2 2)))
 (let (($x9005 (= cell_4_2 1)))
 (or $x9005 $x4977 $x2260 $x4487 $x342 $x2850 $x2837 $x8923 $x1743)))))))))))
(assert
 (let (($x3915 (= cell_5_2 9)))
 (let (($x8486 (= cell_5_2 8)))
 (let (($x7053 (= cell_5_2 7)))
 (let (($x8234 (= cell_5_2 6)))
 (let (($x3959 (= cell_5_2 5)))
 (let (($x4905 (= cell_5_2 4)))
 (let (($x720 (= cell_5_2 3)))
 (let (($x240 (= cell_5_2 2)))
 (let (($x2994 (= cell_5_2 1)))
 (or $x2994 $x240 $x720 $x4905 $x3959 $x8234 $x7053 $x8486 $x3915)))))))))))
(assert
 (let (($x7222 (= cell_6_2 1)))
 (or $x7222 (= cell_6_2 2) (= cell_6_2 3) (= cell_6_2 4) (= cell_6_2 5) (= cell_6_2 6) (= cell_6_2 7) (= cell_6_2 8) (= cell_6_2 9))))
(assert
 (or (= cell_7_2 1) (= cell_7_2 2) (= cell_7_2 3) (= cell_7_2 4) (= cell_7_2 5) (= cell_7_2 6) (= cell_7_2 7) (= cell_7_2 8) (= cell_7_2 9)))
(assert
 (or (= cell_8_2 1) (= cell_8_2 2) (= cell_8_2 3) (= cell_8_2 4) (= cell_8_2 5) (= cell_8_2 6) (= cell_8_2 7) (= cell_8_2 8) (= cell_8_2 9)))
(assert
 (let (($x7161 (= cell_9_2 1)))
 (or $x7161 (= cell_9_2 2) (= cell_9_2 3) (= cell_9_2 4) (= cell_9_2 5) (= cell_9_2 6) (= cell_9_2 7) (= cell_9_2 8) (= cell_9_2 9))))
(assert
 (let (($x2486 (= cell_1_3 9)))
 (let (($x6708 (= cell_1_3 8)))
 (let (($x9265 (= cell_1_3 7)))
 (let (($x4730 (= cell_1_3 6)))
 (let (($x2484 (= cell_1_3 5)))
 (let (($x2945 (= cell_1_3 4)))
 (let (($x2425 (= cell_1_3 3)))
 (let (($x6233 (= cell_1_3 2)))
 (let (($x2692 (= cell_1_3 1)))
 (or $x2692 $x6233 $x2425 $x2945 $x2484 $x4730 $x9265 $x6708 $x2486)))))))))))
(assert
 (let (($x339 (= cell_2_3 9)))
 (let (($x9431 (= cell_2_3 8)))
 (let (($x3551 (= cell_2_3 7)))
 (let (($x3991 (= cell_2_3 6)))
 (let (($x9011 (= cell_2_3 5)))
 (let (($x5746 (= cell_2_3 4)))
 (let (($x770 (= cell_2_3 3)))
 (let (($x1419 (= cell_2_3 2)))
 (let (($x8086 (= cell_2_3 1)))
 (or $x8086 $x1419 $x770 $x5746 $x9011 $x3991 $x3551 $x9431 $x339)))))))))))
(assert
 (let (($x8777 (= cell_3_3 9)))
 (let (($x9626 (= cell_3_3 8)))
 (let (($x1849 (= cell_3_3 7)))
 (let (($x6398 (= cell_3_3 6)))
 (let (($x1464 (= cell_3_3 5)))
 (let (($x45 (= cell_3_3 4)))
 (let (($x3788 (= cell_3_3 3)))
 (let (($x2280 (= cell_3_3 2)))
 (let (($x1021 (= cell_3_3 1)))
 (or $x1021 $x2280 $x3788 $x45 $x1464 $x6398 $x1849 $x9626 $x8777)))))))))))
(assert
 (let (($x4184 (= cell_4_3 9)))
 (let (($x601 (= cell_4_3 8)))
 (let (($x4157 (= cell_4_3 7)))
 (let (($x7316 (= cell_4_3 6)))
 (let (($x4758 (= cell_4_3 5)))
 (let (($x7020 (= cell_4_3 4)))
 (let (($x7973 (= cell_4_3 3)))
 (let (($x8515 (= cell_4_3 2)))
 (let (($x7987 (= cell_4_3 1)))
 (or $x7987 $x8515 $x7973 $x7020 $x4758 $x7316 $x4157 $x601 $x4184)))))))))))
(assert
 (let (($x9095 (= cell_5_3 1)))
 (or $x9095 (= cell_5_3 2) (= cell_5_3 3) (= cell_5_3 4) (= cell_5_3 5) (= cell_5_3 6) (= cell_5_3 7) (= cell_5_3 8) (= cell_5_3 9))))
(assert
 (let (($x4331 (= cell_6_3 1)))
 (or $x4331 (= cell_6_3 2) (= cell_6_3 3) (= cell_6_3 4) (= cell_6_3 5) (= cell_6_3 6) (= cell_6_3 7) (= cell_6_3 8) (= cell_6_3 9))))
(assert
 (let (($x9397 (= cell_7_3 1)))
 (or $x9397 (= cell_7_3 2) (= cell_7_3 3) (= cell_7_3 4) (= cell_7_3 5) (= cell_7_3 6) (= cell_7_3 7) (= cell_7_3 8) (= cell_7_3 9))))
(assert
 (let (($x1486 (= cell_8_3 1)))
 (or $x1486 (= cell_8_3 2) (= cell_8_3 3) (= cell_8_3 4) (= cell_8_3 5) (= cell_8_3 6) (= cell_8_3 7) (= cell_8_3 8) (= cell_8_3 9))))
(assert
 (let (($x2117 (= cell_9_3 1)))
 (or $x2117 (= cell_9_3 2) (= cell_9_3 3) (= cell_9_3 4) (= cell_9_3 5) (= cell_9_3 6) (= cell_9_3 7) (= cell_9_3 8) (= cell_9_3 9))))
(assert
 (let (($x1812 (= cell_1_4 1)))
 (or $x1812 (= cell_1_4 2) (= cell_1_4 3) (= cell_1_4 4) (= cell_1_4 5) (= cell_1_4 6) (= cell_1_4 7) (= cell_1_4 8) (= cell_1_4 9))))
(assert
 (let (($x6696 (= cell_2_4 9)))
 (let (($x1917 (= cell_2_4 8)))
 (let (($x4709 (= cell_2_4 7)))
 (let (($x5283 (= cell_2_4 6)))
 (let (($x2963 (= cell_2_4 5)))
 (let (($x8295 (= cell_2_4 4)))
 (let (($x10126 (= cell_2_4 3)))
 (let (($x2261 (= cell_2_4 2)))
 (let (($x6473 (= cell_2_4 1)))
 (or $x6473 $x2261 $x10126 $x8295 $x2963 $x5283 $x4709 $x1917 $x6696)))))))))))
(assert
 (let (($x1112 (= cell_3_4 1)))
 (or $x1112 (= cell_3_4 2) (= cell_3_4 3) (= cell_3_4 4) (= cell_3_4 5) (= cell_3_4 6) (= cell_3_4 7) (= cell_3_4 8) (= cell_3_4 9))))
(assert
 (let (($x7432 (= cell_4_4 9)))
 (let (($x8144 (= cell_4_4 8)))
 (let (($x8756 (= cell_4_4 7)))
 (let (($x9546 (= cell_4_4 6)))
 (let (($x175 (= cell_4_4 5)))
 (let (($x4414 (= cell_4_4 4)))
 (let (($x9121 (= cell_4_4 3)))
 (let (($x9910 (= cell_4_4 2)))
 (let (($x10041 (= cell_4_4 1)))
 (or $x10041 $x9910 $x9121 $x4414 $x175 $x9546 $x8756 $x8144 $x7432)))))))))))
(assert
 (let (($x956 (= cell_5_4 1)))
 (or $x956 (= cell_5_4 2) (= cell_5_4 3) (= cell_5_4 4) (= cell_5_4 5) (= cell_5_4 6) (= cell_5_4 7) (= cell_5_4 8) (= cell_5_4 9))))
(assert
 (let (($x1563 (= cell_6_4 1)))
 (or $x1563 (= cell_6_4 2) (= cell_6_4 3) (= cell_6_4 4) (= cell_6_4 5) (= cell_6_4 6) (= cell_6_4 7) (= cell_6_4 8) (= cell_6_4 9))))
(assert
 (let (($x56 (= cell_7_4 1)))
 (or $x56 (= cell_7_4 2) (= cell_7_4 3) (= cell_7_4 4) (= cell_7_4 5) (= cell_7_4 6) (= cell_7_4 7) (= cell_7_4 8) (= cell_7_4 9))))
(assert
 (let (($x2103 (= cell_8_4 1)))
 (or $x2103 (= cell_8_4 2) (= cell_8_4 3) (= cell_8_4 4) (= cell_8_4 5) (= cell_8_4 6) (= cell_8_4 7) (= cell_8_4 8) (= cell_8_4 9))))
(assert
 (let (($x5770 (= cell_9_4 1)))
 (or $x5770 (= cell_9_4 2) (= cell_9_4 3) (= cell_9_4 4) (= cell_9_4 5) (= cell_9_4 6) (= cell_9_4 7) (= cell_9_4 8) (= cell_9_4 9))))
(assert
 (let (($x10147 (= cell_1_5 9)))
 (let (($x9527 (= cell_1_5 8)))
 (let (($x5441 (= cell_1_5 7)))
 (let (($x3906 (= cell_1_5 6)))
 (let (($x4762 (= cell_1_5 5)))
 (let (($x245 (= cell_1_5 4)))
 (let (($x1322 (= cell_1_5 3)))
 (let (($x2749 (= cell_1_5 2)))
 (let (($x6317 (= cell_1_5 1)))
 (or $x6317 $x2749 $x1322 $x245 $x4762 $x3906 $x5441 $x9527 $x10147)))))))))))
(assert
 (let (($x2528 (= cell_2_5 9)))
 (let (($x9391 (= cell_2_5 8)))
 (let (($x3961 (= cell_2_5 7)))
 (let (($x7051 (= cell_2_5 6)))
 (let (($x6655 (= cell_2_5 5)))
 (let (($x5235 (= cell_2_5 4)))
 (let (($x3027 (= cell_2_5 3)))
 (let (($x7941 (= cell_2_5 2)))
 (let (($x6429 (= cell_2_5 1)))
 (or $x6429 $x7941 $x3027 $x5235 $x6655 $x7051 $x3961 $x9391 $x2528)))))))))))
(assert
 (let (($x4436 (= cell_3_5 1)))
 (or $x4436 (= cell_3_5 2) (= cell_3_5 3) (= cell_3_5 4) (= cell_3_5 5) (= cell_3_5 6) (= cell_3_5 7) (= cell_3_5 8) (= cell_3_5 9))))
(assert
 (let (($x5792 (= cell_4_5 9)))
 (let (($x10022 (= cell_4_5 8)))
 (let (($x914 (= cell_4_5 7)))
 (let (($x1451 (= cell_4_5 6)))
 (let (($x8118 (= cell_4_5 5)))
 (let (($x5476 (= cell_4_5 4)))
 (let (($x781 (= cell_4_5 3)))
 (let (($x8987 (= cell_4_5 2)))
 (let (($x558 (= cell_4_5 1)))
 (or $x558 $x8987 $x781 $x5476 $x8118 $x1451 $x914 $x10022 $x5792)))))))))))
(assert
 (let (($x8289 (= cell_5_5 1)))
 (or $x8289 (= cell_5_5 2) (= cell_5_5 3) (= cell_5_5 4) (= cell_5_5 5) (= cell_5_5 6) (= cell_5_5 7) (= cell_5_5 8) (= cell_5_5 9))))
(assert
 (let (($x2330 (= cell_6_5 1)))
 (or $x2330 (= cell_6_5 2) (= cell_6_5 3) (= cell_6_5 4) (= cell_6_5 5) (= cell_6_5 6) (= cell_6_5 7) (= cell_6_5 8) (= cell_6_5 9))))
(assert
 (or (= cell_7_5 1) (= cell_7_5 2) (= cell_7_5 3) (= cell_7_5 4) (= cell_7_5 5) (= cell_7_5 6) (= cell_7_5 7) (= cell_7_5 8) (= cell_7_5 9)))
(assert
 (or (= cell_8_5 1) (= cell_8_5 2) (= cell_8_5 3) (= cell_8_5 4) (= cell_8_5 5) (= cell_8_5 6) (= cell_8_5 7) (= cell_8_5 8) (= cell_8_5 9)))
(assert
 (or (= cell_9_5 1) (= cell_9_5 2) (= cell_9_5 3) (= cell_9_5 4) (= cell_9_5 5) (= cell_9_5 6) (= cell_9_5 7) (= cell_9_5 8) (= cell_9_5 9)))
(assert
 (let (($x96 (= cell_1_6 1)))
 (or $x96 (= cell_1_6 2) (= cell_1_6 3) (= cell_1_6 4) (= cell_1_6 5) (= cell_1_6 6) (= cell_1_6 7) (= cell_1_6 8) (= cell_1_6 9))))
(assert
 (let (($x6940 (= cell_2_6 9)))
 (let (($x5964 (= cell_2_6 8)))
 (let (($x9160 (= cell_2_6 7)))
 (let (($x83 (= cell_2_6 6)))
 (let (($x3613 (= cell_2_6 5)))
 (let (($x4405 (= cell_2_6 4)))
 (let (($x3440 (= cell_2_6 3)))
 (let (($x9448 (= cell_2_6 2)))
 (let (($x79 (= cell_2_6 1)))
 (or $x79 $x9448 $x3440 $x4405 $x3613 $x83 $x9160 $x5964 $x6940)))))))))))
(assert
 (let (($x3085 (= cell_3_6 1)))
 (or $x3085 (= cell_3_6 2) (= cell_3_6 3) (= cell_3_6 4) (= cell_3_6 5) (= cell_3_6 6) (= cell_3_6 7) (= cell_3_6 8) (= cell_3_6 9))))
(assert
 (let (($x3900 (= cell_4_6 9)))
 (let (($x443 (= cell_4_6 8)))
 (let (($x6531 (= cell_4_6 7)))
 (let (($x9237 (= cell_4_6 6)))
 (let (($x1805 (= cell_4_6 5)))
 (let (($x8585 (= cell_4_6 4)))
 (let (($x2908 (= cell_4_6 3)))
 (let (($x661 (= cell_4_6 2)))
 (let (($x4558 (= cell_4_6 1)))
 (or $x4558 $x661 $x2908 $x8585 $x1805 $x9237 $x6531 $x443 $x3900)))))))))))
(assert
 (let (($x4603 (= cell_5_6 1)))
 (or $x4603 (= cell_5_6 2) (= cell_5_6 3) (= cell_5_6 4) (= cell_5_6 5) (= cell_5_6 6) (= cell_5_6 7) (= cell_5_6 8) (= cell_5_6 9))))
(assert
 (let (($x8214 (= cell_6_6 1)))
 (or $x8214 (= cell_6_6 2) (= cell_6_6 3) (= cell_6_6 4) (= cell_6_6 5) (= cell_6_6 6) (= cell_6_6 7) (= cell_6_6 8) (= cell_6_6 9))))
(assert
 (or (= cell_7_6 1) (= cell_7_6 2) (= cell_7_6 3) (= cell_7_6 4) (= cell_7_6 5) (= cell_7_6 6) (= cell_7_6 7) (= cell_7_6 8) (= cell_7_6 9)))
(assert
 (or (= cell_8_6 1) (= cell_8_6 2) (= cell_8_6 3) (= cell_8_6 4) (= cell_8_6 5) (= cell_8_6 6) (= cell_8_6 7) (= cell_8_6 8) (= cell_8_6 9)))
(assert
 (or (= cell_9_6 1) (= cell_9_6 2) (= cell_9_6 3) (= cell_9_6 4) (= cell_9_6 5) (= cell_9_6 6) (= cell_9_6 7) (= cell_9_6 8) (= cell_9_6 9)))
(assert
 (let (($x2555 (= cell_1_7 9)))
 (let (($x9324 (= cell_1_7 8)))
 (let (($x3469 (= cell_1_7 7)))
 (let (($x9736 (= cell_1_7 6)))
 (let (($x6607 (= cell_1_7 5)))
 (let (($x7992 (= cell_1_7 4)))
 (let (($x4255 (= cell_1_7 3)))
 (let (($x1842 (= cell_1_7 2)))
 (let (($x2563 (= cell_1_7 1)))
 (or $x2563 $x1842 $x4255 $x7992 $x6607 $x9736 $x3469 $x9324 $x2555)))))))))))
(assert
 (let (($x706 (= cell_2_7 9)))
 (let (($x4427 (= cell_2_7 8)))
 (let (($x707 (= cell_2_7 7)))
 (let (($x3415 (= cell_2_7 6)))
 (let (($x3431 (= cell_2_7 5)))
 (let (($x8447 (= cell_2_7 4)))
 (let (($x570 (= cell_2_7 3)))
 (let (($x4040 (= cell_2_7 2)))
 (let (($x6811 (= cell_2_7 1)))
 (or $x6811 $x4040 $x570 $x8447 $x3431 $x3415 $x707 $x4427 $x706)))))))))))
(assert
 (let (($x7352 (= cell_3_7 9)))
 (let (($x4254 (= cell_3_7 8)))
 (let (($x58 (= cell_3_7 7)))
 (let (($x3733 (= cell_3_7 6)))
 (let (($x7098 (= cell_3_7 5)))
 (let (($x1916 (= cell_3_7 4)))
 (let (($x2002 (= cell_3_7 3)))
 (let (($x9516 (= cell_3_7 2)))
 (let (($x447 (= cell_3_7 1)))
 (or $x447 $x9516 $x2002 $x1916 $x7098 $x3733 $x58 $x4254 $x7352)))))))))))
(assert
 (let (($x838 (= cell_4_7 9)))
 (let (($x7778 (= cell_4_7 8)))
 (let (($x970 (= cell_4_7 7)))
 (let (($x5040 (= cell_4_7 6)))
 (let (($x9288 (= cell_4_7 5)))
 (let (($x1230 (= cell_4_7 4)))
 (let (($x1309 (= cell_4_7 3)))
 (let (($x6105 (= cell_4_7 2)))
 (let (($x2967 (= cell_4_7 1)))
 (or $x2967 $x6105 $x1309 $x1230 $x9288 $x5040 $x970 $x7778 $x838)))))))))))
(assert
 (let (($x7434 (= cell_5_7 1)))
 (or $x7434 (= cell_5_7 2) (= cell_5_7 3) (= cell_5_7 4) (= cell_5_7 5) (= cell_5_7 6) (= cell_5_7 7) (= cell_5_7 8) (= cell_5_7 9))))
(assert
 (let (($x7933 (= cell_6_7 1)))
 (or $x7933 (= cell_6_7 2) (= cell_6_7 3) (= cell_6_7 4) (= cell_6_7 5) (= cell_6_7 6) (= cell_6_7 7) (= cell_6_7 8) (= cell_6_7 9))))
(assert
 (or (= cell_7_7 1) (= cell_7_7 2) (= cell_7_7 3) (= cell_7_7 4) (= cell_7_7 5) (= cell_7_7 6) (= cell_7_7 7) (= cell_7_7 8) (= cell_7_7 9)))
(assert
 (or (= cell_8_7 1) (= cell_8_7 2) (= cell_8_7 3) (= cell_8_7 4) (= cell_8_7 5) (= cell_8_7 6) (= cell_8_7 7) (= cell_8_7 8) (= cell_8_7 9)))
(assert
 (or (= cell_9_7 1) (= cell_9_7 2) (= cell_9_7 3) (= cell_9_7 4) (= cell_9_7 5) (= cell_9_7 6) (= cell_9_7 7) (= cell_9_7 8) (= cell_9_7 9)))
(assert
 (let (($x3931 (= cell_1_8 9)))
 (let (($x9972 (= cell_1_8 8)))
 (let (($x6806 (= cell_1_8 7)))
 (let (($x5003 (= cell_1_8 6)))
 (let (($x5502 (= cell_1_8 5)))
 (let (($x4343 (= cell_1_8 4)))
 (let (($x6493 (= cell_1_8 3)))
 (let (($x3667 (= cell_1_8 2)))
 (let (($x2204 (= cell_1_8 1)))
 (or $x2204 $x3667 $x6493 $x4343 $x5502 $x5003 $x6806 $x9972 $x3931)))))))))))
(assert
 (let (($x9707 (= cell_2_8 9)))
 (let (($x5287 (= cell_2_8 8)))
 (let (($x6896 (= cell_2_8 7)))
 (let (($x8138 (= cell_2_8 6)))
 (let (($x5631 (= cell_2_8 5)))
 (let (($x2293 (= cell_2_8 4)))
 (let (($x9493 (= cell_2_8 3)))
 (let (($x2095 (= cell_2_8 2)))
 (let (($x9578 (= cell_2_8 1)))
 (or $x9578 $x2095 $x9493 $x2293 $x5631 $x8138 $x6896 $x5287 $x9707)))))))))))
(assert
 (let (($x4588 (= cell_3_8 9)))
 (let (($x2648 (= cell_3_8 8)))
 (let (($x877 (= cell_3_8 7)))
 (let (($x624 (= cell_3_8 6)))
 (let (($x1562 (= cell_3_8 5)))
 (let (($x7914 (= cell_3_8 4)))
 (let (($x6484 (= cell_3_8 3)))
 (let (($x4764 (= cell_3_8 2)))
 (let (($x5640 (= cell_3_8 1)))
 (or $x5640 $x4764 $x6484 $x7914 $x1562 $x624 $x877 $x2648 $x4588)))))))))))
(assert
 (let (($x3462 (= cell_4_8 1)))
 (or $x3462 (= cell_4_8 2) (= cell_4_8 3) (= cell_4_8 4) (= cell_4_8 5) (= cell_4_8 6) (= cell_4_8 7) (= cell_4_8 8) (= cell_4_8 9))))
(assert
 (let (($x833 (= cell_5_8 1)))
 (or $x833 (= cell_5_8 2) (= cell_5_8 3) (= cell_5_8 4) (= cell_5_8 5) (= cell_5_8 6) (= cell_5_8 7) (= cell_5_8 8) (= cell_5_8 9))))
(assert
 (let (($x4639 (= cell_6_8 1)))
 (or $x4639 (= cell_6_8 2) (= cell_6_8 3) (= cell_6_8 4) (= cell_6_8 5) (= cell_6_8 6) (= cell_6_8 7) (= cell_6_8 8) (= cell_6_8 9))))
(assert
 (let (($x5661 (= cell_7_8 1)))
 (or $x5661 (= cell_7_8 2) (= cell_7_8 3) (= cell_7_8 4) (= cell_7_8 5) (= cell_7_8 6) (= cell_7_8 7) (= cell_7_8 8) (= cell_7_8 9))))
(assert
 (let (($x9580 (= cell_8_8 1)))
 (or $x9580 (= cell_8_8 2) (= cell_8_8 3) (= cell_8_8 4) (= cell_8_8 5) (= cell_8_8 6) (= cell_8_8 7) (= cell_8_8 8) (= cell_8_8 9))))
(assert
 (let (($x2023 (= cell_9_8 1)))
 (or $x2023 (= cell_9_8 2) (= cell_9_8 3) (= cell_9_8 4) (= cell_9_8 5) (= cell_9_8 6) (= cell_9_8 7) (= cell_9_8 8) (= cell_9_8 9))))
(assert
 (let (($x7057 (= cell_1_9 9)))
 (let (($x3208 (= cell_1_9 8)))
 (let (($x6598 (= cell_1_9 7)))
 (let (($x4038 (= cell_1_9 6)))
 (let (($x2196 (= cell_1_9 5)))
 (let (($x4682 (= cell_1_9 4)))
 (let (($x5366 (= cell_1_9 3)))
 (let (($x3284 (= cell_1_9 2)))
 (let (($x1510 (= cell_1_9 1)))
 (or $x1510 $x3284 $x5366 $x4682 $x2196 $x4038 $x6598 $x3208 $x7057)))))))))))
(assert
 (let (($x7368 (= cell_2_9 1)))
 (or $x7368 (= cell_2_9 2) (= cell_2_9 3) (= cell_2_9 4) (= cell_2_9 5) (= cell_2_9 6) (= cell_2_9 7) (= cell_2_9 8) (= cell_2_9 9))))
(assert
 (let (($x5355 (= cell_3_9 1)))
 (or $x5355 (= cell_3_9 2) (= cell_3_9 3) (= cell_3_9 4) (= cell_3_9 5) (= cell_3_9 6) (= cell_3_9 7) (= cell_3_9 8) (= cell_3_9 9))))
(assert
 (let (($x8469 (= cell_4_9 1)))
 (or $x8469 (= cell_4_9 2) (= cell_4_9 3) (= cell_4_9 4) (= cell_4_9 5) (= cell_4_9 6) (= cell_4_9 7) (= cell_4_9 8) (= cell_4_9 9))))
(assert
 (let (($x6904 (= cell_5_9 1)))
 (or $x6904 (= cell_5_9 2) (= cell_5_9 3) (= cell_5_9 4) (= cell_5_9 5) (= cell_5_9 6) (= cell_5_9 7) (= cell_5_9 8) (= cell_5_9 9))))
(assert
 (let (($x6349 (= cell_6_9 1)))
 (or $x6349 (= cell_6_9 2) (= cell_6_9 3) (= cell_6_9 4) (= cell_6_9 5) (= cell_6_9 6) (= cell_6_9 7) (= cell_6_9 8) (= cell_6_9 9))))
(assert
 (let (($x6868 (= cell_7_9 1)))
 (or $x6868 (= cell_7_9 2) (= cell_7_9 3) (= cell_7_9 4) (= cell_7_9 5) (= cell_7_9 6) (= cell_7_9 7) (= cell_7_9 8) (= cell_7_9 9))))
(assert
 (let (($x3764 (= cell_8_9 1)))
 (or $x3764 (= cell_8_9 2) (= cell_8_9 3) (= cell_8_9 4) (= cell_8_9 5) (= cell_8_9 6) (= cell_8_9 7) (= cell_8_9 8) (= cell_8_9 9))))
(assert
 (let (($x4100 (= cell_9_9 1)))
 (or $x4100 (= cell_9_9 2) (= cell_9_9 3) (= cell_9_9 4) (= cell_9_9 5) (= cell_9_9 6) (= cell_9_9 7) (= cell_9_9 8) (= cell_9_9 9))))
(assert
 (and (distinct cell_1_1 cell_1_2 cell_1_3 cell_1_4 cell_1_5 cell_1_6 cell_1_7 cell_1_8 cell_1_9) true))
(assert
 (and (distinct cell_2_1 cell_2_2 cell_2_3 cell_2_4 cell_2_5 cell_2_6 cell_2_7 cell_2_8 cell_2_9) true))
(assert
 (and (distinct cell_3_1 cell_3_2 cell_3_3 cell_3_4 cell_3_5 cell_3_6 cell_3_7 cell_3_8 cell_3_9) true))
(assert
 (and (distinct cell_4_1 cell_4_2 cell_4_3 cell_4_4 cell_4_5 cell_4_6 cell_4_7 cell_4_8 cell_4_9) true))
(assert
 (and (distinct cell_5_1 cell_5_2 cell_5_3 cell_5_4 cell_5_5 cell_5_6 cell_5_7 cell_5_8 cell_5_9) true))
(assert
 (and (distinct cell_6_1 cell_6_2 cell_6_3 cell_6_4 cell_6_5 cell_6_6 cell_6_7 cell_6_8 cell_6_9) true))
(assert
 (and (distinct cell_7_1 cell_7_2 cell_7_3 cell_7_4 cell_7_5 cell_7_6 cell_7_7 cell_7_8 cell_7_9) true))
(assert
 (and (distinct cell_8_1 cell_8_2 cell_8_3 cell_8_4 cell_8_5 cell_8_6 cell_8_7 cell_8_8 cell_8_9) true))
(assert
 (and (distinct cell_9_1 cell_9_2 cell_9_3 cell_9_4 cell_9_5 cell_9_6 cell_9_7 cell_9_8 cell_9_9) true))
(assert
 (and (distinct cell_1_1 cell_2_1 cell_3_1 cell_4_1 cell_5_1 cell_6_1 cell_7_1 cell_8_1 cell_9_1) true))
(assert
 (and (distinct cell_1_2 cell_2_2 cell_3_2 cell_4_2 cell_5_2 cell_6_2 cell_7_2 cell_8_2 cell_9_2) true))
(assert
 (and (distinct cell_1_3 cell_2_3 cell_3_3 cell_4_3 cell_5_3 cell_6_3 cell_7_3 cell_8_3 cell_9_3) true))
(assert
 (and (distinct cell_1_4 cell_2_4 cell_3_4 cell_4_4 cell_5_4 cell_6_4 cell_7_4 cell_8_4 cell_9_4) true))
(assert
 (and (distinct cell_1_5 cell_2_5 cell_3_5 cell_4_5 cell_5_5 cell_6_5 cell_7_5 cell_8_5 cell_9_5) true))
(assert
 (and (distinct cell_1_6 cell_2_6 cell_3_6 cell_4_6 cell_5_6 cell_6_6 cell_7_6 cell_8_6 cell_9_6) true))
(assert
 (and (distinct cell_1_7 cell_2_7 cell_3_7 cell_4_7 cell_5_7 cell_6_7 cell_7_7 cell_8_7 cell_9_7) true))
(assert
 (and (distinct cell_1_8 cell_2_8 cell_3_8 cell_4_8 cell_5_8 cell_6_8 cell_7_8 cell_8_8 cell_9_8) true))
(assert
 (and (distinct cell_1_9 cell_2_9 cell_3_9 cell_4_9 cell_5_9 cell_6_9 cell_7_9 cell_8_9 cell_9_9) true))
(assert
 (and (distinct cell_1_1 cell_1_2 cell_1_3 cell_2_1 cell_2_2 cell_2_3 cell_3_1 cell_3_2 cell_3_3) true))
(assert
 (and (distinct cell_1_4 cell_1_5 cell_1_6 cell_2_4 cell_2_5 cell_2_6 cell_3_4 cell_3_5 cell_3_6) true))
(assert
 (and (distinct cell_1_7 cell_1_8 cell_1_9 cell_2_7 cell_2_8 cell_2_9 cell_3_7 cell_3_8 cell_3_9) true))
(assert
 (and (distinct cell_4_1 cell_4_2 cell_4_3 cell_5_1 cell_5_2 cell_5_3 cell_6_1 cell_6_2 cell_6_3) true))
(assert
 (and (distinct cell_4_4 cell_4_5 cell_4_6 cell_5_4 cell_5_5 cell_5_6 cell_6_4 cell_6_5 cell_6_6) true))
(assert
 (and (distinct cell_4_7 cell_4_8 cell_4_9 cell_5_7 cell_5_8 cell_5_9 cell_6_7 cell_6_8 cell_6_9) true))
(assert
 (and (distinct cell_7_1 cell_7_2 cell_7_3 cell_8_1 cell_8_2 cell_8_3 cell_9_1 cell_9_2 cell_9_3) true))
(assert
 (and (distinct cell_7_4 cell_7_5 cell_7_6 cell_8_4 cell_8_5 cell_8_6 cell_9_4 cell_9_5 cell_9_6) true))
(assert
 (and (distinct cell_7_7 cell_7_8 cell_7_9 cell_8_7 cell_8_8 cell_8_9 cell_9_7 cell_9_8 cell_9_9) true))
(assert
 (let (($x5103 (and (distinct cell_5_9 cell_6_8 cell_7_7 cell_8_6) true)))
 (let (($x4132 (and (distinct cell_2_9 cell_3_8 cell_4_7 cell_5_6 cell_6_5 cell_7_4 cell_8_3 cell_9_2) true)))
 (let (($x7682 (and (distinct cell_1_8 cell_2_7 cell_3_6 cell_4_5 cell_5_4 cell_6_3 cell_7_2 cell_8_1) true)))
 (let (($x2039 (and (distinct cell_1_5 cell_2_4 cell_3_3 cell_4_2) true)))
 (let (($x6833 (and (distinct cell_5_1 cell_6_2 cell_7_3 cell_8_4) true)))
 (let (($x8560 (and (distinct cell_2_1 cell_3_2 cell_4_3 cell_5_4 cell_6_5 cell_7_6 cell_8_7 cell_9_8) true)))
 (let (($x3057 (and (distinct cell_1_2 cell_2_3 cell_3_4 cell_4_5 cell_5_6 cell_6_7 cell_7_8 cell_8_9) true)))
 (let (($x3718 (and (distinct cell_1_5 cell_2_6 cell_3_7 cell_4_8) true)))
 (and $x3718 $x3057 $x8560 $x6833 $x2039 $x7682 $x4132 $x5103))))))))))
(assert
 (= cell_6_6 1))
(check-sat)
